robust/generate/spp_dkp_Lefebvre_et_al_2026/src/shortest_path_9_8.kp
50
261

[2.23 1.03 1.15 1.78 1.7 4.48 1.84 3.47 3.42 1.4 1.56 1.58 0.65 4.38 4.09 2.52 1.41 4.0 3.04 1.76 2.28 2.36 4.18 2.57 3.01 0.24 1.47 0.25 0.81 4.17 4.22 3.21 3.3 2.08 4.19 1.83 3.07 2.92 2.69 1.0 3.07 3.95 3.59 1.94 4.13 3.52 3.27 0.56 4.12 1.74 1.33 2.78 2.11 1.15 3.78 0.8 1.02 2.97]

[88 86 100 35 74 76 79 36 76 78 50 1 89 14 60 36 89 79 14 15 12 19 43 11 76 47 96 10 5 15 45 28 65 86 68 10 29 83 18 6 37 82 84 95 12 68 75 16 13 69 28 55 98 52 32 36 26 50]
