robust/generate/spp_dkp_Lefebvre_et_al_2026/src/shortest_path_9_8.lp
\ Model sp_9_8
\ LP format - for model browsing. Use MPS format to capture full model detail.
\ Signature: 0x5b6ef6aeab80ea12
Minimize
  49.98 y[0,1] + 62.77 y[0,2] + 64.07 y[0,3] + 31.89 y[0,4] + 7.81 y[0,5]
   + 62.68 y[0,6] + 25.3 y[0,7] + 45.12 y[0,8] + 49.98 y[1,0]
   + 16.55 y[1,2] + 22.02 y[1,3] + 71.11 y[1,4] + 46.53 y[1,5]
   + 18.68 y[1,6] + 45.8 y[1,8] + 62.77 y[2,0] + 16.55 y[2,1]
   + 30.68 y[2,3] + 60.61 y[2,5] + 3.61 y[2,6] + 45.61 y[2,8]
   + 64.07 y[3,0] + 22.02 y[3,1] + 30.68 y[3,2] + 58.55 y[3,5]
   + 34.18 y[3,6] + 67.8 y[3,8] + 31.89 y[4,0] + 71.11 y[4,1] + 39.7 y[4,5]
   + 29 y[4,7] + 41.05 y[4,8] + 7.81 y[5,0] + 46.53 y[5,1] + 60.61 y[5,2]
   + 58.55 y[5,3] + 39.7 y[5,4] + 60.96 y[5,6] + 30.15 y[5,7]
   + 49.16 y[5,8] + 62.68 y[6,0] + 18.68 y[6,1] + 3.61 y[6,2]
   + 34.18 y[6,3] + 60.96 y[6,5] + 42.95 y[6,8] + 25.3 y[7,0] + 29 y[7,4]
   + 30.15 y[7,5] + 62.13 y[7,8] + 45.12 y[8,0] + 45.8 y[8,1]
   + 45.61 y[8,2] + 67.8 y[8,3] + 41.05 y[8,4] + 49.16 y[8,5]
   + 42.95 y[8,6] + 62.13 y[8,7] + 4.998 r[0,1] + 6.277 r[0,2]
   + 6.407 r[0,3] + 3.189 r[0,4] + 0.781 r[0,5] + 6.268 r[0,6]
   + 2.53 r[0,7] + 4.512 r[0,8] + 4.998 r[1,0] + 1.655 r[1,2]
   + 2.202 r[1,3] + 7.111 r[1,4] + 4.653 r[1,5] + 1.868 r[1,6]
   + 4.58 r[1,8] + 6.277 r[2,0] + 1.655 r[2,1] + 3.068 r[2,3]
   + 6.061 r[2,5] + 0.361 r[2,6] + 4.561 r[2,8] + 6.407 r[3,0]
   + 2.202 r[3,1] + 3.068 r[3,2] + 5.855 r[3,5] + 3.418 r[3,6]
   + 6.78 r[3,8] + 3.189 r[4,0] + 7.111 r[4,1] + 3.97 r[4,5] + 2.9 r[4,7]
   + 4.105 r[4,8] + 0.781 r[5,0] + 4.653 r[5,1] + 6.061 r[5,2]
   + 5.855 r[5,3] + 3.97 r[5,4] + 6.096 r[5,6] + 3.015 r[5,7]
   + 4.916 r[5,8] + 6.268 r[6,0] + 1.868 r[6,1] + 0.361 r[6,2]
   + 3.418 r[6,3] + 6.096 r[6,5] + 4.295 r[6,8] + 2.53 r[7,0] + 2.9 r[7,4]
   + 3.015 r[7,5] + 6.213 r[7,8] + 4.512 r[8,0] + 4.58 r[8,1]
   + 4.561 r[8,2] + 6.78 r[8,3] + 4.105 r[8,4] + 4.916 r[8,5]
   + 4.295 r[8,6] + 6.213 r[8,7]
Subject To
 flow_cons_inner_nodes[0]: - y[0,1] - y[0,2] - y[0,3] - y[0,4] - y[0,5]
   - y[0,6] - y[0,7] - y[0,8] + y[1,0] + y[2,0] + y[3,0] + y[4,0] + y[5,0]
   + y[6,0] + y[7,0] + y[8,0] = 0
 flow_cons_inner_nodes[1]: y[0,1] - y[1,0] - y[1,2] - y[1,3] - y[1,4]
   - y[1,5] - y[1,6] - y[1,8] + y[2,1] + y[3,1] + y[4,1] + y[5,1] + y[6,1]
   + y[8,1] = 0
 flow_cons_inner_nodes[2]: y[0,2] + y[1,2] - y[2,0] - y[2,1] - y[2,3]
   - y[2,5] - y[2,6] - y[2,8] + y[3,2] + y[5,2] + y[6,2] + y[8,2] = 0
 flow_cons_inner_nodes[5]: y[0,5] + y[1,5] + y[2,5] + y[3,5] + y[4,5]
   - y[5,0] - y[5,1] - y[5,2] - y[5,3] - y[5,4] - y[5,6] - y[5,7] - y[5,8]
   + y[6,5] + y[7,5] + y[8,5] = 0
 flow_cons_inner_nodes[6]: y[0,6] + y[1,6] + y[2,6] + y[3,6] + y[5,6]
   - y[6,0] - y[6,1] - y[6,2] - y[6,3] - y[6,5] - y[6,8] + y[8,6] = 0
 flow_cons_inner_nodes[7]: y[0,7] + y[4,7] + y[5,7] - y[7,0] - y[7,4]
   - y[7,5] - y[7,8] + y[8,7] = 0
 flow_cons_inner_nodes[8]: y[0,8] + y[1,8] + y[2,8] + y[3,8] + y[4,8]
   + y[5,8] + y[6,8] + y[7,8] - y[8,0] - y[8,1] - y[8,2] - y[8,3] - y[8,4]
   - y[8,5] - y[8,6] - y[8,7] = 0
 flow_cons_source: - y[0,3] - y[1,3] - y[2,3] + y[3,0] + y[3,1] + y[3,2]
   + y[3,5] + y[3,6] + y[3,8] - y[5,3] - y[6,3] - y[8,3] = 1
 flow_cons_target: y[0,4] + y[1,4] - y[4,0] - y[4,1] - y[4,5] - y[4,7]
   - y[4,8] + y[5,4] + y[7,4] + y[8,4] = 1
 primal_lower: - 2.23 y[0,1] - 1.03 y[0,2] - 1.15 y[0,3] - 1.78 y[0,4]
   - 1.7 y[0,5] - 4.48 y[0,6] - 1.84 y[0,7] - 3.47 y[0,8] - 3.42 y[1,0]
   - 1.4 y[1,2] - 1.56 y[1,3] - 1.58 y[1,4] - 0.65 y[1,5] - 4.38 y[1,6]
   - 4.09 y[1,8] - 2.52 y[2,0] - 1.41 y[2,1] - 4 y[2,3] - 3.04 y[2,5]
   - 1.76 y[2,6] - 2.28 y[2,8] - 2.36 y[3,0] - 4.18 y[3,1] - 2.57 y[3,2]
   - 3.01 y[3,5] - 0.24 y[3,6] - 1.47 y[3,8] - 0.25 y[4,0] - 0.81 y[4,1]
   - 4.17 y[4,5] - 4.22 y[4,7] - 3.21 y[4,8] - 3.3 y[5,0] - 2.08 y[5,1]
   - 4.19 y[5,2] - 1.83 y[5,3] - 3.07 y[5,4] - 2.92 y[5,6] - 2.69 y[5,7]
   - y[5,8] - 3.07 y[6,0] - 3.95 y[6,1] - 3.59 y[6,2] - 1.94 y[6,3]
   - 4.13 y[6,5] - 3.52 y[6,8] - 3.27 y[7,0] - 0.56 y[7,4] - 4.12 y[7,5]
   - 1.74 y[7,8] - 1.33 y[8,0] - 2.78 y[8,1] - 2.11 y[8,2] - 1.15 y[8,3]
   - 3.78 y[8,4] - 0.8 y[8,5] - 1.02 y[8,6] - 2.97 y[8,7] + 88 u[0,1]
   + 86 u[0,2] + 100 u[0,3] + 35 u[0,4] + 74 u[0,5] + 76 u[0,6] + 79 u[0,7]
   + 36 u[0,8] + 76 u[1,0] + 78 u[1,2] + 50 u[1,3] + u[1,4] + 89 u[1,5]
   + 14 u[1,6] + 60 u[1,8] + 36 u[2,0] + 89 u[2,1] + 79 u[2,3] + 14 u[2,5]
   + 15 u[2,6] + 12 u[2,8] + 19 u[3,0] + 43 u[3,1] + 11 u[3,2] + 76 u[3,5]
   + 47 u[3,6] + 96 u[3,8] + 10 u[4,0] + 5 u[4,1] + 15 u[4,5] + 45 u[4,7]
   + 28 u[4,8] + 65 u[5,0] + 86 u[5,1] + 68 u[5,2] + 10 u[5,3] + 29 u[5,4]
   + 83 u[5,6] + 18 u[5,7] + 6 u[5,8] + 37 u[6,0] + 82 u[6,1] + 84 u[6,2]
   + 95 u[6,3] + 12 u[6,5] + 68 u[6,8] + 75 u[7,0] + 16 u[7,4] + 13 u[7,5]
   + 69 u[7,8] + 28 u[8,0] + 55 u[8,1] + 98 u[8,2] + 52 u[8,3] + 32 u[8,4]
   + 36 u[8,5] + 26 u[8,6] + 50 u[8,7] <= 261
 mccormick1[0,1]: - u[0,1] + r[0,1] <= 0
 mccormick1[0,2]: - u[0,2] + r[0,2] <= 0
 mccormick1[0,3]: - u[0,3] + r[0,3] <= 0
 mccormick1[0,4]: - u[0,4] + r[0,4] <= 0
 mccormick1[0,5]: - u[0,5] + r[0,5] <= 0
 mccormick1[0,6]: - u[0,6] + r[0,6] <= 0
 mccormick1[0,7]: - u[0,7] + r[0,7] <= 0
 mccormick1[0,8]: - u[0,8] + r[0,8] <= 0
 mccormick1[1,0]: - u[1,0] + r[1,0] <= 0
 mccormick1[1,2]: - u[1,2] + r[1,2] <= 0
 mccormick1[1,3]: - u[1,3] + r[1,3] <= 0
 mccormick1[1,4]: - u[1,4] + r[1,4] <= 0
 mccormick1[1,5]: - u[1,5] + r[1,5] <= 0
 mccormick1[1,6]: - u[1,6] + r[1,6] <= 0
 mccormick1[1,8]: - u[1,8] + r[1,8] <= 0
 mccormick1[2,0]: - u[2,0] + r[2,0] <= 0
 mccormick1[2,1]: - u[2,1] + r[2,1] <= 0
 mccormick1[2,3]: - u[2,3] + r[2,3] <= 0
 mccormick1[2,5]: - u[2,5] + r[2,5] <= 0
 mccormick1[2,6]: - u[2,6] + r[2,6] <= 0
 mccormick1[2,8]: - u[2,8] + r[2,8] <= 0
 mccormick1[3,0]: - u[3,0] + r[3,0] <= 0
 mccormick1[3,1]: - u[3,1] + r[3,1] <= 0
 mccormick1[3,2]: - u[3,2] + r[3,2] <= 0
 mccormick1[3,5]: - u[3,5] + r[3,5] <= 0
 mccormick1[3,6]: - u[3,6] + r[3,6] <= 0
 mccormick1[3,8]: - u[3,8] + r[3,8] <= 0
 mccormick1[4,0]: - u[4,0] + r[4,0] <= 0
 mccormick1[4,1]: - u[4,1] + r[4,1] <= 0
 mccormick1[4,5]: - u[4,5] + r[4,5] <= 0
 mccormick1[4,7]: - u[4,7] + r[4,7] <= 0
 mccormick1[4,8]: - u[4,8] + r[4,8] <= 0
 mccormick1[5,0]: - u[5,0] + r[5,0] <= 0
 mccormick1[5,1]: - u[5,1] + r[5,1] <= 0
 mccormick1[5,2]: - u[5,2] + r[5,2] <= 0
 mccormick1[5,3]: - u[5,3] + r[5,3] <= 0
 mccormick1[5,4]: - u[5,4] + r[5,4] <= 0
 mccormick1[5,6]: - u[5,6] + r[5,6] <= 0
 mccormick1[5,7]: - u[5,7] + r[5,7] <= 0
 mccormick1[5,8]: - u[5,8] + r[5,8] <= 0
 mccormick1[6,0]: - u[6,0] + r[6,0] <= 0
 mccormick1[6,1]: - u[6,1] + r[6,1] <= 0
 mccormick1[6,2]: - u[6,2] + r[6,2] <= 0
 mccormick1[6,3]: - u[6,3] + r[6,3] <= 0
 mccormick1[6,5]: - u[6,5] + r[6,5] <= 0
 mccormick1[6,8]: - u[6,8] + r[6,8] <= 0
 mccormick1[7,0]: - u[7,0] + r[7,0] <= 0
 mccormick1[7,4]: - u[7,4] + r[7,4] <= 0
 mccormick1[7,5]: - u[7,5] + r[7,5] <= 0
 mccormick1[7,8]: - u[7,8] + r[7,8] <= 0
 mccormick1[8,0]: - u[8,0] + r[8,0] <= 0
 mccormick1[8,1]: - u[8,1] + r[8,1] <= 0
 mccormick1[8,2]: - u[8,2] + r[8,2] <= 0
 mccormick1[8,3]: - u[8,3] + r[8,3] <= 0
 mccormick1[8,4]: - u[8,4] + r[8,4] <= 0
 mccormick1[8,5]: - u[8,5] + r[8,5] <= 0
 mccormick1[8,6]: - u[8,6] + r[8,6] <= 0
 mccormick1[8,7]: - u[8,7] + r[8,7] <= 0
 mccormick2[0,1]: - y[0,1] + r[0,1] <= 0
 mccormick2[0,2]: - y[0,2] + r[0,2] <= 0
 mccormick2[0,3]: - y[0,3] + r[0,3] <= 0
 mccormick2[0,4]: - y[0,4] + r[0,4] <= 0
 mccormick2[0,5]: - y[0,5] + r[0,5] <= 0
 mccormick2[0,6]: - y[0,6] + r[0,6] <= 0
 mccormick2[0,7]: - y[0,7] + r[0,7] <= 0
 mccormick2[0,8]: - y[0,8] + r[0,8] <= 0
 mccormick2[1,0]: - y[1,0] + r[1,0] <= 0
 mccormick2[1,2]: - y[1,2] + r[1,2] <= 0
 mccormick2[1,3]: - y[1,3] + r[1,3] <= 0
 mccormick2[1,4]: - y[1,4] + r[1,4] <= 0
 mccormick2[1,5]: - y[1,5] + r[1,5] <= 0
 mccormick2[1,6]: - y[1,6] + r[1,6] <= 0
 mccormick2[1,8]: - y[1,8] + r[1,8] <= 0
 mccormick2[2,0]: - y[2,0] + r[2,0] <= 0
 mccormick2[2,1]: - y[2,1] + r[2,1] <= 0
 mccormick2[2,3]: - y[2,3] + r[2,3] <= 0
 mccormick2[2,5]: - y[2,5] + r[2,5] <= 0
 mccormick2[2,6]: - y[2,6] + r[2,6] <= 0
 mccormick2[2,8]: - y[2,8] + r[2,8] <= 0
 mccormick2[3,0]: - y[3,0] + r[3,0] <= 0
 mccormick2[3,1]: - y[3,1] + r[3,1] <= 0
 mccormick2[3,2]: - y[3,2] + r[3,2] <= 0
 mccormick2[3,5]: - y[3,5] + r[3,5] <= 0
 mccormick2[3,6]: - y[3,6] + r[3,6] <= 0
 mccormick2[3,8]: - y[3,8] + r[3,8] <= 0
 mccormick2[4,0]: - y[4,0] + r[4,0] <= 0
 mccormick2[4,1]: - y[4,1] + r[4,1] <= 0
 mccormick2[4,5]: - y[4,5] + r[4,5] <= 0
 mccormick2[4,7]: - y[4,7] + r[4,7] <= 0
 mccormick2[4,8]: - y[4,8] + r[4,8] <= 0
 mccormick2[5,0]: - y[5,0] + r[5,0] <= 0
 mccormick2[5,1]: - y[5,1] + r[5,1] <= 0
 mccormick2[5,2]: - y[5,2] + r[5,2] <= 0
 mccormick2[5,3]: - y[5,3] + r[5,3] <= 0
 mccormick2[5,4]: - y[5,4] + r[5,4] <= 0
 mccormick2[5,6]: - y[5,6] + r[5,6] <= 0
 mccormick2[5,7]: - y[5,7] + r[5,7] <= 0
 mccormick2[5,8]: - y[5,8] + r[5,8] <= 0
 mccormick2[6,0]: - y[6,0] + r[6,0] <= 0
 mccormick2[6,1]: - y[6,1] + r[6,1] <= 0
 mccormick2[6,2]: - y[6,2] + r[6,2] <= 0
 mccormick2[6,3]: - y[6,3] + r[6,3] <= 0
 mccormick2[6,5]: - y[6,5] + r[6,5] <= 0
 mccormick2[6,8]: - y[6,8] + r[6,8] <= 0
 mccormick2[7,0]: - y[7,0] + r[7,0] <= 0
 mccormick2[7,4]: - y[7,4] + r[7,4] <= 0
 mccormick2[7,5]: - y[7,5] + r[7,5] <= 0
 mccormick2[7,8]: - y[7,8] + r[7,8] <= 0
 mccormick2[8,0]: - y[8,0] + r[8,0] <= 0
 mccormick2[8,1]: - y[8,1] + r[8,1] <= 0
 mccormick2[8,2]: - y[8,2] + r[8,2] <= 0
 mccormick2[8,3]: - y[8,3] + r[8,3] <= 0
 mccormick2[8,4]: - y[8,4] + r[8,4] <= 0
 mccormick2[8,5]: - y[8,5] + r[8,5] <= 0
 mccormick2[8,6]: - y[8,6] + r[8,6] <= 0
 mccormick2[8,7]: - y[8,7] + r[8,7] <= 0
 mccormick3[0,1]: - y[0,1] - u[0,1] + r[0,1] >= -1
 mccormick3[0,2]: - y[0,2] - u[0,2] + r[0,2] >= -1
 mccormick3[0,3]: - y[0,3] - u[0,3] + r[0,3] >= -1
 mccormick3[0,4]: - y[0,4] - u[0,4] + r[0,4] >= -1
 mccormick3[0,5]: - y[0,5] - u[0,5] + r[0,5] >= -1
 mccormick3[0,6]: - y[0,6] - u[0,6] + r[0,6] >= -1
 mccormick3[0,7]: - y[0,7] - u[0,7] + r[0,7] >= -1
 mccormick3[0,8]: - y[0,8] - u[0,8] + r[0,8] >= -1
 mccormick3[1,0]: - y[1,0] - u[1,0] + r[1,0] >= -1
 mccormick3[1,2]: - y[1,2] - u[1,2] + r[1,2] >= -1
 mccormick3[1,3]: - y[1,3] - u[1,3] + r[1,3] >= -1
 mccormick3[1,4]: - y[1,4] - u[1,4] + r[1,4] >= -1
 mccormick3[1,5]: - y[1,5] - u[1,5] + r[1,5] >= -1
 mccormick3[1,6]: - y[1,6] - u[1,6] + r[1,6] >= -1
 mccormick3[1,8]: - y[1,8] - u[1,8] + r[1,8] >= -1
 mccormick3[2,0]: - y[2,0] - u[2,0] + r[2,0] >= -1
 mccormick3[2,1]: - y[2,1] - u[2,1] + r[2,1] >= -1
 mccormick3[2,3]: - y[2,3] - u[2,3] + r[2,3] >= -1
 mccormick3[2,5]: - y[2,5] - u[2,5] + r[2,5] >= -1
 mccormick3[2,6]: - y[2,6] - u[2,6] + r[2,6] >= -1
 mccormick3[2,8]: - y[2,8] - u[2,8] + r[2,8] >= -1
 mccormick3[3,0]: - y[3,0] - u[3,0] + r[3,0] >= -1
 mccormick3[3,1]: - y[3,1] - u[3,1] + r[3,1] >= -1
 mccormick3[3,2]: - y[3,2] - u[3,2] + r[3,2] >= -1
 mccormick3[3,5]: - y[3,5] - u[3,5] + r[3,5] >= -1
 mccormick3[3,6]: - y[3,6] - u[3,6] + r[3,6] >= -1
 mccormick3[3,8]: - y[3,8] - u[3,8] + r[3,8] >= -1
 mccormick3[4,0]: - y[4,0] - u[4,0] + r[4,0] >= -1
 mccormick3[4,1]: - y[4,1] - u[4,1] + r[4,1] >= -1
 mccormick3[4,5]: - y[4,5] - u[4,5] + r[4,5] >= -1
 mccormick3[4,7]: - y[4,7] - u[4,7] + r[4,7] >= -1
 mccormick3[4,8]: - y[4,8] - u[4,8] + r[4,8] >= -1
 mccormick3[5,0]: - y[5,0] - u[5,0] + r[5,0] >= -1
 mccormick3[5,1]: - y[5,1] - u[5,1] + r[5,1] >= -1
 mccormick3[5,2]: - y[5,2] - u[5,2] + r[5,2] >= -1
 mccormick3[5,3]: - y[5,3] - u[5,3] + r[5,3] >= -1
 mccormick3[5,4]: - y[5,4] - u[5,4] + r[5,4] >= -1
 mccormick3[5,6]: - y[5,6] - u[5,6] + r[5,6] >= -1
 mccormick3[5,7]: - y[5,7] - u[5,7] + r[5,7] >= -1
 mccormick3[5,8]: - y[5,8] - u[5,8] + r[5,8] >= -1
 mccormick3[6,0]: - y[6,0] - u[6,0] + r[6,0] >= -1
 mccormick3[6,1]: - y[6,1] - u[6,1] + r[6,1] >= -1
 mccormick3[6,2]: - y[6,2] - u[6,2] + r[6,2] >= -1
 mccormick3[6,3]: - y[6,3] - u[6,3] + r[6,3] >= -1
 mccormick3[6,5]: - y[6,5] - u[6,5] + r[6,5] >= -1
 mccormick3[6,8]: - y[6,8] - u[6,8] + r[6,8] >= -1
 mccormick3[7,0]: - y[7,0] - u[7,0] + r[7,0] >= -1
 mccormick3[7,4]: - y[7,4] - u[7,4] + r[7,4] >= -1
 mccormick3[7,5]: - y[7,5] - u[7,5] + r[7,5] >= -1
 mccormick3[7,8]: - y[7,8] - u[7,8] + r[7,8] >= -1
 mccormick3[8,0]: - y[8,0] - u[8,0] + r[8,0] >= -1
 mccormick3[8,1]: - y[8,1] - u[8,1] + r[8,1] >= -1
 mccormick3[8,2]: - y[8,2] - u[8,2] + r[8,2] >= -1
 mccormick3[8,3]: - y[8,3] - u[8,3] + r[8,3] >= -1
 mccormick3[8,4]: - y[8,4] - u[8,4] + r[8,4] >= -1
 mccormick3[8,5]: - y[8,5] - u[8,5] + r[8,5] >= -1
 mccormick3[8,6]: - y[8,6] - u[8,6] + r[8,6] >= -1
 mccormick3[8,7]: - y[8,7] - u[8,7] + r[8,7] >= -1
Bounds
Binaries
 y[0,1] y[0,2] y[0,3] y[0,4] y[0,5] y[0,6] y[0,7] y[0,8] y[1,0] y[1,2]
 y[1,3] y[1,4] y[1,5] y[1,6] y[1,8] y[2,0] y[2,1] y[2,3] y[2,5] y[2,6]
 y[2,8] y[3,0] y[3,1] y[3,2] y[3,5] y[3,6] y[3,8] y[4,0] y[4,1] y[4,5]
 y[4,7] y[4,8] y[5,0] y[5,1] y[5,2] y[5,3] y[5,4] y[5,6] y[5,7] y[5,8]
 y[6,0] y[6,1] y[6,2] y[6,3] y[6,5] y[6,8] y[7,0] y[7,4] y[7,5] y[7,8]
 y[8,0] y[8,1] y[8,2] y[8,3] y[8,4] y[8,5] y[8,6] y[8,7] u[0,1] u[0,2]
 u[0,3] u[0,4] u[0,5] u[0,6] u[0,7] u[0,8] u[1,0] u[1,2] u[1,3] u[1,4]
 u[1,5] u[1,6] u[1,8] u[2,0] u[2,1] u[2,3] u[2,5] u[2,6] u[2,8] u[3,0]
 u[3,1] u[3,2] u[3,5] u[3,6] u[3,8] u[4,0] u[4,1] u[4,5] u[4,7] u[4,8]
 u[5,0] u[5,1] u[5,2] u[5,3] u[5,4] u[5,6] u[5,7] u[5,8] u[6,0] u[6,1]
 u[6,2] u[6,3] u[6,5] u[6,8] u[7,0] u[7,4] u[7,5] u[7,8] u[8,0] u[8,1]
 u[8,2] u[8,3] u[8,4] u[8,5] u[8,6] u[8,7] r[0,1] r[0,2] r[0,3] r[0,4]
 r[0,5] r[0,6] r[0,7] r[0,8] r[1,0] r[1,2] r[1,3] r[1,4] r[1,5] r[1,6]
 r[1,8] r[2,0] r[2,1] r[2,3] r[2,5] r[2,6] r[2,8] r[3,0] r[3,1] r[3,2]
 r[3,5] r[3,6] r[3,8] r[4,0] r[4,1] r[4,5] r[4,7] r[4,8] r[5,0] r[5,1]
 r[5,2] r[5,3] r[5,4] r[5,6] r[5,7] r[5,8] r[6,0] r[6,1] r[6,2] r[6,3]
 r[6,5] r[6,8] r[7,0] r[7,4] r[7,5] r[7,8] r[8,0] r[8,1] r[8,2] r[8,3]
 r[8,4] r[8,5] r[8,6] r[8,7]
End
